solution status: optimal solution found
objective value:                                   29
$_24__3_y                                           8 	(obj:0)
$_24__3_z                                          22 	(obj:0)
thingy.thingy.chamber[0].first.vcollect_y                   14 	(obj:0)
thingy.thingy.chamber[0].first.vcollect_z                   22 	(obj:0)
$_22__3_y                                           5 	(obj:0)
$_22__3_z                                          15 	(obj:0)
$_26__3_y                                           2 	(obj:0)
$_26__3_z                                           9 	(obj:0)
thingy.thingy.chamber[7].first.vcollect_y                    4 	(obj:0)
thingy.thingy.chamber[7].first.vcollect_z                   22 	(obj:0)
$_23__3_y                                          12 	(obj:0)
$_23__3_z                                          23 	(obj:0)
$_27__3_y                                           6 	(obj:0)
$_27__3_z                                          24 	(obj:0)
thingy.thingy.prep.vout3_y                         12 	(obj:0)
thingy.thingy.prep.vout3_z                         19 	(obj:0)
thingy.flush_stage_in_hole_y                        9 	(obj:0)
thingy.flush_stage_in_hole_z                       21 	(obj:0)
$_25__3_y                                          13 	(obj:0)
$_25__3_z                                          22 	(obj:0)
thingy.thingy.chamber[1].first.vcollect_y                   10 	(obj:0)
thingy.thingy.chamber[1].first.vcollect_z                   22 	(obj:0)
$_19__3_y                                          12 	(obj:0)
$_19__3_z                                          11 	(obj:0)
thingy.flush_prep_outlet_pinholes[1].hole_y                   12 	(obj:0)
thingy.flush_prep_outlet_pinholes[1].hole_z                   20 	(obj:0)
thingy.thingy.chamber[3].first.vcollect_y                    4 	(obj:0)
thingy.thingy.chamber[3].first.vcollect_z                   23 	(obj:0)
thingy.flush_sieve_hole_y                           6 	(obj:0)
thingy.flush_sieve_hole_z                          20 	(obj:0)
thingy.thingy.chamber[9].first.vcollect_y                    3 	(obj:0)
thingy.thingy.chamber[9].first.vcollect_z                   22 	(obj:0)
thingy.thingy.chamber[2].first.vcollect_y                    7 	(obj:0)
thingy.thingy.chamber[2].first.vcollect_z                   23 	(obj:0)
thingy.ctrl_prep_outlet_pinholes[1].hole_y                   13 	(obj:0)
thingy.ctrl_prep_outlet_pinholes[1].hole_z                   20 	(obj:0)
thingy.prep_outlet_pinholes[1].hole_y                   12 	(obj:0)
thingy.prep_outlet_pinholes[1].hole_z                   24 	(obj:0)
$_20__3_y                                           5 	(obj:0)
$_20__3_z                                          24 	(obj:0)
thingy.thingy.chamber[5].first.vcollect_y                    4 	(obj:0)
thingy.thingy.chamber[5].first.vcollect_z                   21 	(obj:0)
$_21__3_y                                           5 	(obj:0)
$_21__3_z                                           9 	(obj:0)
thingy.ctrl_sv1_hole_y                             12 	(obj:0)
thingy.ctrl_sv1_hole_z                             18 	(obj:0)
thingy.thingy.chamber[6].first.vcollect_y                    5 	(obj:0)
thingy.thingy.chamber[6].first.vcollect_z                   22 	(obj:0)
thingy.ctrl_stage_in_hole_y                        16 	(obj:0)
thingy.ctrl_stage_in_hole_z                        21 	(obj:0)
thingy.thingy.chamber[4].first.vcollect_y                    6 	(obj:0)
thingy.thingy.chamber[4].first.vcollect_z                   23 	(obj:0)
thingy.ctrl_sieve_hole_y                           15 	(obj:0)
thingy.ctrl_sieve_hole_z                           21 	(obj:0)
$_28__3_y                                           2 	(obj:0)
$_28__3_z                                          11 	(obj:0)
$_17__3_y                                          22 	(obj:0)
$_17__3_z                                          25 	(obj:0)
thingy.flush_sv1_hole_y                            15 	(obj:0)
thingy.flush_sv1_hole_z                            18 	(obj:0)
thingy.thingy.chamber[8].first.vcollect_y                    2 	(obj:0)
thingy.thingy.chamber[8].first.vcollect_z                   21 	(obj:0)
x65                                                 2 	(obj:1)
x77                                                 1 	(obj:1)
x88                                                 2 	(obj:1)
x93                                                 2 	(obj:1)
x96                                                 2 	(obj:1)
x106                                                1 	(obj:1)
x107                                                2 	(obj:1)
x108                                                1 	(obj:1)
x111                                                1 	(obj:1)
x114                                                2 	(obj:1)
x115                                                1 	(obj:1)
x117                                                1 	(obj:1)
x118                                                1 	(obj:1)
x119                                                1 	(obj:1)
x129                                                1 	(obj:1)
x132                                                1 	(obj:1)
x140                                                2 	(obj:1)
x148                                                1 	(obj:1)
x151                                                2 	(obj:1)
x157                                                2 	(obj:1)
